NAME : instances/clustered-mixed-tsp/instance-47.tsp
COMMENT : No Comment
TYPE : TSP
DIMENSION: 47
EDGE_WEIGHT_TYPE : EUC_2D
NODE_COORD_SECTION
1 95 70 
2 514 1532 
3 1207 1343 
4 1255 993 
5 391 1389 
6 1587 1435 
7 379 38 
8 366 1153 
9 1267 921 
10 1322 1984 
11 226 943 
12 1413 1091 
13 1035 171 
14 1122 1276 
15 1110 1814 
16 1040 1086 
17 321 590 
18 1057 68 
19 1010 218 
20 1479 1337 
21 96 1694 
22 1672 603 
23 363 569 
24 1036 886 
25 501 84 
26 1967 820 
27 1713 106 
28 1663 1779 
29 1761 1742 
30 664 1370 
31 945 1716 
32 602 419 
33 1834 1492 
34 781 1204 
35 1015 141 
36 527 270 
37 1471 1375 
38 917 1423 
39 1981 969 
40 658 654 
41 1565 373 
42 807 985 
43 1021 545 
44 1562 266 
45 848 1433 
46 549 1564 
47 79 1616 
EOF
